solution status: optimal solution found
objective value:                     141189.013199688
d11(0,0)                                            1 	(obj:0)
d11(1,1)                                            1 	(obj:0)
d11(2,4)                                            1 	(obj:0)
d11(2,7)                                            1 	(obj:0)
d11(2,10)                                           1 	(obj:0)
d11(3,13)                                           1 	(obj:0)
d11(3,16)                                           1 	(obj:0)
d11(3,19)                                           1 	(obj:0)
d11(3,22)                                           1 	(obj:0)
d11(3,25)                                           1 	(obj:0)
d11(3,28)                                           1 	(obj:0)
d11(3,31)                                           1 	(obj:0)
d11(3,34)                                           1 	(obj:0)
d11(3,37)                                           1 	(obj:0)
d11(4,40)                                           1 	(obj:0)
d11(4,41)                                           1 	(obj:0)
d11(4,43)                                           1 	(obj:0)
d11(4,44)                                           1 	(obj:0)
d11(4,46)                                           1 	(obj:0)
d11(4,47)                                           1 	(obj:0)
d11(4,49)                                           1 	(obj:0)
d11(4,50)                                           1 	(obj:0)
d11(4,52)                                           1 	(obj:0)
d11(4,53)                                           1 	(obj:0)
d11(4,55)                                           1 	(obj:0)
d11(4,56)                                           1 	(obj:0)
d11(4,58)                                           1 	(obj:0)
d11(4,59)                                           1 	(obj:0)
d11(4,61)                                           1 	(obj:0)
d11(4,62)                                           1 	(obj:0)
d11(4,64)                                           1 	(obj:0)
d11(4,65)                                           1 	(obj:0)
d11(4,67)                                           1 	(obj:0)
d11(4,68)                                           1 	(obj:0)
d11(4,70)                                           1 	(obj:0)
d11(4,71)                                           1 	(obj:0)
d11(4,73)                                           1 	(obj:0)
d11(4,74)                                           1 	(obj:0)
d11(4,76)                                           1 	(obj:0)
d11(4,77)                                           1 	(obj:0)
d11(4,79)                                           1 	(obj:0)
d11(4,80)                                           1 	(obj:0)
d11(4,82)                                           1 	(obj:0)
d11(4,83)                                           1 	(obj:0)
d11(4,85)                                           1 	(obj:0)
d11(4,86)                                           1 	(obj:0)
d11(4,88)                                           1 	(obj:0)
d11(4,89)                                           1 	(obj:0)
d11(4,91)                                           1 	(obj:0)
d11(4,92)                                           1 	(obj:0)
d11(4,94)                                           1 	(obj:0)
d11(4,95)                                           1 	(obj:0)
d11(4,97)                                           1 	(obj:0)
d11(4,98)                                           1 	(obj:0)
d11(4,100)                                          1 	(obj:0)
d11(4,101)                                          1 	(obj:0)
d11(4,103)                                          1 	(obj:0)
d11(4,104)                                          1 	(obj:0)
d11(4,106)                                          1 	(obj:0)
d11(4,107)                                          1 	(obj:0)
d11(4,109)                                          1 	(obj:0)
d11(4,110)                                          1 	(obj:0)
d11(4,112)                                          1 	(obj:0)
d11(4,113)                                          1 	(obj:0)
d11(4,115)                                          1 	(obj:0)
d11(4,116)                                          1 	(obj:0)
d11(4,118)                                          1 	(obj:0)
d11(4,119)                                          1 	(obj:0)
d12(1,3)                                            1 	(obj:0)
d12(2,6)                                            1 	(obj:0)
d12(2,9)                                            1 	(obj:0)
d12(2,12)                                           1 	(obj:0)
d12(3,15)                                           1 	(obj:0)
d12(3,18)                                           1 	(obj:0)
d12(3,21)                                           1 	(obj:0)
d12(3,24)                                           1 	(obj:0)
d12(3,27)                                           1 	(obj:0)
d12(3,30)                                           1 	(obj:0)
d12(3,33)                                           1 	(obj:0)
d12(3,36)                                           1 	(obj:0)
d12(3,39)                                           1 	(obj:0)
d12(4,42)                                           1 	(obj:0)
d12(4,45)                                           1 	(obj:0)
d12(4,48)                                           1 	(obj:0)
d12(4,51)                                           1 	(obj:0)
d12(4,54)                                           1 	(obj:0)
d12(4,57)                                           1 	(obj:0)
d12(4,60)                                           1 	(obj:0)
d12(4,63)                                           1 	(obj:0)
d12(4,66)                                           1 	(obj:0)
d12(4,69)                                           1 	(obj:0)
d12(4,72)                                           1 	(obj:0)
d12(4,75)                                           1 	(obj:0)
d12(4,78)                                           1 	(obj:0)
d12(4,81)                                           1 	(obj:0)
d12(4,84)                                           1 	(obj:0)
d12(4,87)                                           1 	(obj:0)
d12(4,90)                                           1 	(obj:0)
d12(4,93)                                           1 	(obj:0)
d12(4,96)                                           1 	(obj:0)
d12(4,99)                                           1 	(obj:0)
d12(4,102)                                          1 	(obj:0)
d12(4,105)                                          1 	(obj:0)
d12(4,108)                                          1 	(obj:0)
d12(4,111)                                          1 	(obj:0)
d12(4,114)                                          1 	(obj:0)
d12(4,117)                                          1 	(obj:0)
d12(4,120)                                          1 	(obj:0)
d21(3,13)                                           1 	(obj:0)
d21(3,14)                                           1 	(obj:0)
d21(3,16)                                           1 	(obj:0)
d21(3,22)                                           1 	(obj:0)
d21(4,40)                                           1 	(obj:0)
d21(4,41)                                           1 	(obj:0)
d21(4,42)                                           1 	(obj:0)
d21(4,43)                                           1 	(obj:0)
d21(4,44)                                           1 	(obj:0)
d21(4,45)                                           1 	(obj:0)
d21(4,46)                                           1 	(obj:0)
d21(4,47)                                           1 	(obj:0)
d21(4,49)                                           1 	(obj:0)
d21(4,50)                                           1 	(obj:0)
d21(4,51)                                           1 	(obj:0)
d21(4,52)                                           1 	(obj:0)
d21(4,53)                                           1 	(obj:0)
d21(4,55)                                           1 	(obj:0)
d21(4,58)                                           1 	(obj:0)
d21(4,59)                                           1 	(obj:0)
d21(4,61)                                           1 	(obj:0)
d21(4,64)                                           1 	(obj:0)
d21(4,67)                                           1 	(obj:0)
d21(4,68)                                           1 	(obj:0)
d21(4,69)                                           1 	(obj:0)
d21(4,70)                                           1 	(obj:0)
d21(4,71)                                           1 	(obj:0)
d21(4,73)                                           1 	(obj:0)
d21(4,76)                                           1 	(obj:0)
d21(4,77)                                           1 	(obj:0)
d21(4,79)                                           1 	(obj:0)
d21(4,85)                                           1 	(obj:0)
d21(4,94)                                           1 	(obj:0)
d21(4,95)                                           1 	(obj:0)
d21(4,97)                                           1 	(obj:0)
d21(4,100)                                          1 	(obj:0)
d21(4,103)                                          1 	(obj:0)
d21(4,112)                                          1 	(obj:0)
y2(4,102)                            327.230111064518 	(obj:0)
y2(4,105)                            327.230111064518 	(obj:0)
y2(4,108)                            327.230111064518 	(obj:0)
y2(4,111)                            327.230111064518 	(obj:0)
y2(4,114)                            327.230111064518 	(obj:0)
y2(4,117)                            327.230111064518 	(obj:0)
y2(4,120)                            327.230111064518 	(obj:0)
STE(1,1)                             7702.11318877144 	(obj:0)
STE(0,0)                                         9450 	(obj:0)
STE(1,2)                                         8694 	(obj:0)
STE(1,3)                             9610.90531694652 	(obj:0)
STE(2,4)                             5954.22637754233 	(obj:0)
STE(2,5)                             6946.11318877144 	(obj:0)
STE(2,6)                             7863.01850571741 	(obj:0)
STE(2,7)                             6946.11318877089 	(obj:0)
STE(2,8)                                         7938 	(obj:0)
STE(2,9)                             8854.90531694597 	(obj:0)
STE(2,10)                            7863.01850571741 	(obj:0)
STE(2,11)                            8854.90531694652 	(obj:0)
STE(2,12)                             9771.8106338925 	(obj:0)
STE(3,13)                            4206.33956631363 	(obj:0)
STE(3,14)                            5198.22637754233 	(obj:0)
STE(3,15)                            6115.13169448871 	(obj:0)
STE(3,16)                            5198.22637754273 	(obj:0)
STE(3,17)                            6190.11318877144 	(obj:0)
STE(3,18)                            7107.01850571781 	(obj:0)
STE(3,19)                            6115.13169448871 	(obj:0)
STE(3,20)                            7107.01850571741 	(obj:0)
STE(3,21)                            8023.92382266379 	(obj:0)
STE(3,22)                            5198.22637754219 	(obj:0)
STE(3,23)                            6190.11318877089 	(obj:0)
STE(3,24)                            7107.01850571727 	(obj:0)
STE(3,25)                             6190.1131887713 	(obj:0)
STE(3,26)                                        7182 	(obj:0)
STE(3,27)                            8098.90531694638 	(obj:0)
STE(3,28)                            7107.01850571727 	(obj:0)
STE(3,29)                            8098.90531694638 	(obj:0)
STE(3,30)                            9015.81063389235 	(obj:0)
STE(3,31)                            6115.13169448871 	(obj:0)
STE(3,32)                            7107.01850571741 	(obj:0)
STE(3,33)                            8023.92382266379 	(obj:0)
STE(3,34)                            7107.01850571781 	(obj:0)
STE(3,35)                            8098.90531694652 	(obj:0)
STE(3,36)                             9015.8106338929 	(obj:0)
STE(3,37)                            8023.92382266379 	(obj:0)
STE(3,38)                             9015.8106338925 	(obj:0)
STE(3,39)                            9932.71595083887 	(obj:0)
STE(4,40)                            1777.43454936725 	(obj:0)
STE(4,41)                            2774.20055270054 	(obj:0)
STE(4,42)                            3761.20817182492 	(obj:0)
STE(4,43)                            2769.32136059595 	(obj:0)
STE(4,44)                            3766.08736392924 	(obj:0)
STE(4,45)                            4753.09498305362 	(obj:0)
STE(4,46)                            3686.22667754233 	(obj:0)
STE(4,47)                            4682.99268087562 	(obj:0)
STE(4,48)                                   5670.0003 	(obj:0)
STE(4,49)                            2769.32136059636 	(obj:0)
STE(4,50)                            3766.08736392965 	(obj:0)
STE(4,51)                            4753.09498305402 	(obj:0)
STE(4,52)                            3761.20817182506 	(obj:0)
STE(4,53)                            4757.97417515835 	(obj:0)
STE(4,54)                            5744.98179428273 	(obj:0)
STE(4,55)                            4678.11348877144 	(obj:0)
STE(4,56)                            5674.87949210473 	(obj:0)
STE(4,57)                            6661.88711122911 	(obj:0)
STE(4,58)                            3686.22667754233 	(obj:0)
STE(4,59)                            4682.99268087562 	(obj:0)
STE(4,60)                                   5670.0003 	(obj:0)
STE(4,61)                            4678.11348877104 	(obj:0)
STE(4,62)                            5674.87949210433 	(obj:0)
STE(4,63)                            6661.88711122871 	(obj:0)
STE(4,64)                            5595.01880571741 	(obj:0)
STE(4,65)                             6591.7848090507 	(obj:0)
STE(4,66)                            7578.79242817508 	(obj:0)
STE(4,67)                            2769.32136059581 	(obj:0)
STE(4,68)                             3766.0873639291 	(obj:0)
STE(4,69)                            4753.09498305348 	(obj:0)
STE(4,70)                            3761.20817182452 	(obj:0)
STE(4,71)                            4757.97417515781 	(obj:0)
STE(4,72)                            5744.98179428218 	(obj:0)
STE(4,73)                            4678.11348877089 	(obj:0)
STE(4,74)                            5674.87949210423 	(obj:0)
STE(4,75)                            6661.88711122856 	(obj:0)
STE(4,76)                            3761.20817182492 	(obj:0)
STE(4,77)                            4757.97417515821 	(obj:0)
STE(4,78)                            5744.98179428259 	(obj:0)
STE(4,79)                            4753.09498305362 	(obj:0)
STE(4,80)                            5749.86098638691 	(obj:0)
STE(4,81)                            6736.86860551129 	(obj:0)
STE(4,82)                                   5670.0003 	(obj:0)
STE(4,83)                            6666.76630333329 	(obj:0)
STE(4,84)                            7653.77392245767 	(obj:0)
STE(4,85)                            4678.11348877089 	(obj:0)
STE(4,86)                            5674.87949210418 	(obj:0)
STE(4,87)                            6661.88711122856 	(obj:0)
STE(4,88)                                   5670.0003 	(obj:0)
STE(4,89)                            6666.76630333329 	(obj:0)
STE(4,90)                            7653.77392245767 	(obj:0)
STE(4,91)                            6586.90561694597 	(obj:0)
STE(4,92)                            7583.67162027926 	(obj:0)
STE(4,93)                            8570.67923940364 	(obj:0)
STE(4,94)                            3686.22667754233 	(obj:0)
STE(4,95)                            4682.99268087562 	(obj:0)
STE(4,96)                                   5670.0003 	(obj:0)
STE(4,97)                            4678.11348877104 	(obj:0)
STE(4,98)                            5674.87949210433 	(obj:0)
STE(4,99)                            6661.88711122871 	(obj:0)
STE(4,100)                           5595.01880571741 	(obj:0)
STE(4,101)                            6591.7848090507 	(obj:0)
STE(4,102)                           7578.79242817508 	(obj:0)
STE(4,103)                           4678.11348877144 	(obj:0)
STE(4,104)                           5674.87949210478 	(obj:0)
STE(4,105)                           6661.88711122911 	(obj:0)
STE(4,106)                           5670.00030000014 	(obj:0)
STE(4,107)                           6666.76630333343 	(obj:0)
STE(4,108)                           7653.77392245781 	(obj:0)
STE(4,109)                           6586.90561694652 	(obj:0)
STE(4,110)                           7583.67162027981 	(obj:0)
STE(4,111)                           8570.67923940419 	(obj:0)
STE(4,112)                           5595.01880571741 	(obj:0)
STE(4,113)                           6591.78480905071 	(obj:0)
STE(4,114)                           7578.79242817508 	(obj:0)
STE(4,115)                           6586.90561694612 	(obj:0)
STE(4,116)                           7583.67162027941 	(obj:0)
STE(4,117)                           8570.67923940379 	(obj:0)
STE(4,118)                            7503.8109338925 	(obj:0)
STE(4,119)                           8500.57693722579 	(obj:0)
STE(4,120)                           9487.58455635017 	(obj:0)
y1(4,100)                            1505.61451525174 	(obj:0)
y1(4,101)                            608.525112251778 	(obj:0)
y1(4,103)                            1505.61451525174 	(obj:0)
y1(4,104)                            608.525112251734 	(obj:0)
y1(4,106)                            1505.61451525174 	(obj:0)
y1(4,107)                            608.525112251778 	(obj:0)
y1(4,109)                            1505.61451525174 	(obj:0)
y1(4,110)                            608.525112251778 	(obj:0)
y1(4,112)                            1505.61451525174 	(obj:0)
y1(4,113)                            608.525112251778 	(obj:0)
y1(4,115)                            1505.61451525174 	(obj:0)
y1(4,116)                            608.525112251778 	(obj:0)
y1(4,118)                            1505.61451525174 	(obj:0)
y1(4,119)                            608.525112251778 	(obj:0)
WB(3)                                 3399.3204933139 	(obj:0)
AVE(3)                                3399.3204933139 	(obj:0)
AVE(4)                               3353.21046544222 	(obj:0)
y2(4,99)                             327.230111064518 	(obj:0)
WG(4)                                3353.21046544222 	(obj:10)
BG(1)                                3373.36910929149 	(obj:10)
BG(2)                                3373.36910929208 	(obj:10)
BG(3)                                3373.36910929165 	(obj:10)
BG(4)                                645.583526651377 	(obj:10)
WB(1)                                3134.60043707458 	(obj:0)
AVE(1)                               3134.60043707458 	(obj:0)
WB(2)                                3326.45170866643 	(obj:0)
AVE(2)                               3326.45170866643 	(obj:0)
y1(1,1)                              892.698130105706 	(obj:0)
y1(2,4)                              892.698130106196 	(obj:0)
y1(2,7)                              892.698130106196 	(obj:0)
y1(2,10)                             892.698130106196 	(obj:0)
y1(3,13)                             892.698130105834 	(obj:0)
y1(3,16)                             892.698130105834 	(obj:0)
y1(3,19)                             892.698130105834 	(obj:0)
y1(3,22)                             892.698130105834 	(obj:0)
y1(3,25)                             892.698130105834 	(obj:0)
y1(3,28)                             892.698130105834 	(obj:0)
y1(3,31)                             892.698130105834 	(obj:0)
y1(3,34)                             892.698130105834 	(obj:0)
y1(3,37)                             892.698130105834 	(obj:0)
y1(4,40)                             1505.61451525174 	(obj:0)
y1(4,41)                             608.525112251778 	(obj:0)
y1(4,43)                             1505.61451525174 	(obj:0)
y1(4,44)                             608.525112251778 	(obj:0)
y1(4,46)                             1505.61451525174 	(obj:0)
y1(4,47)                             608.525112251778 	(obj:0)
y1(4,49)                             1505.61451525174 	(obj:0)
y1(4,50)                             608.525112251778 	(obj:0)
y1(4,52)                             1505.61451525174 	(obj:0)
y1(4,53)                             608.525112251778 	(obj:0)
y1(4,55)                             1505.61451525174 	(obj:0)
y1(4,56)                             608.525112251778 	(obj:0)
y1(4,58)                             1505.61451525174 	(obj:0)
y1(4,59)                             608.525112251778 	(obj:0)
y1(4,61)                             1505.61451525174 	(obj:0)
y1(4,62)                             608.525112251778 	(obj:0)
y1(4,64)                             1505.61451525174 	(obj:0)
y1(4,65)                             608.525112251778 	(obj:0)
y1(4,67)                             1505.61451525174 	(obj:0)
y1(4,68)                             608.525112251778 	(obj:0)
y1(4,70)                             1505.61451525174 	(obj:0)
y1(4,71)                             608.525112251778 	(obj:0)
y1(4,73)                             1505.61451525174 	(obj:0)
y1(4,74)                             608.525112251734 	(obj:0)
y1(4,76)                             1505.61451525174 	(obj:0)
y1(4,77)                             608.525112251778 	(obj:0)
y1(4,79)                             1505.61451525174 	(obj:0)
y1(4,80)                             608.525112251778 	(obj:0)
y1(4,82)                             1505.61451525174 	(obj:0)
y1(4,83)                             608.525112251778 	(obj:0)
y1(4,85)                             1505.61451525174 	(obj:0)
y1(4,86)                             608.525112251778 	(obj:0)
y1(4,88)                             1505.61451525174 	(obj:0)
y1(4,89)                             608.525112251778 	(obj:0)
y1(4,91)                             1505.61451525174 	(obj:0)
y1(4,92)                             608.525112251778 	(obj:0)
y1(4,94)                             1505.61451525174 	(obj:0)
y1(4,95)                             608.525112251778 	(obj:0)
y1(4,97)                             1505.61451525174 	(obj:0)
y1(4,98)                             608.525112251778 	(obj:0)
y2(1,3)                              965.163491522652 	(obj:0)
y2(2,6)                              965.163491522081 	(obj:0)
y2(2,9)                              965.163491522073 	(obj:0)
y2(2,12)                             965.163491522081 	(obj:0)
y2(3,15)                             965.163491522502 	(obj:0)
y2(3,18)                             965.163491522502 	(obj:0)
y2(3,21)                             965.163491522502 	(obj:0)
y2(3,24)                             965.163491522502 	(obj:0)
y2(3,27)                             965.163491522502 	(obj:0)
y2(3,30)                             965.163491522502 	(obj:0)
y2(3,33)                             965.163491522502 	(obj:0)
y2(3,36)                             965.163491522502 	(obj:0)
y2(3,39)                             965.163491522502 	(obj:0)
y2(4,42)                             327.230111064518 	(obj:0)
y2(4,45)                             327.230111064518 	(obj:0)
y2(4,48)                             327.230111064518 	(obj:0)
y2(4,51)                             327.230111064518 	(obj:0)
y2(4,54)                             327.230111064518 	(obj:0)
y2(4,57)                             327.230111064518 	(obj:0)
y2(4,60)                             327.230111064518 	(obj:0)
y2(4,63)                             327.230111064518 	(obj:0)
y2(4,66)                             327.230111064518 	(obj:0)
y2(4,69)                             327.230111064518 	(obj:0)
y2(4,72)                             327.230111064518 	(obj:0)
y2(4,75)                             327.230111064518 	(obj:0)
y2(4,78)                             327.230111064518 	(obj:0)
y2(4,81)                             327.230111064518 	(obj:0)
y2(4,84)                             327.230111064518 	(obj:0)
y2(4,87)                             327.230111064518 	(obj:0)
y2(4,90)                             327.230111064518 	(obj:0)
y2(4,93)                             327.230111064518 	(obj:0)
y2(4,96)                             327.230111064518 	(obj:0)
